clingo version 5.4.0
Reading from merger/Tarik/merge.lp ...
Solving...
Answer: 1
occurs(object(robot,1),action(move,(-1,0)),1). occurs(object(robot,1),action(move,(-1,0)),3). occurs(object(robot,2),action(move,(1,0)),2). occurs(object(robot,2),action(move,(1,0)),3). occurs(object(robot,1),action(move,(0,-1)),2). occurs(object(robot,2),action(move,(1,0)),4). occurs(object(robot,1),action(move,(-1,0)),4). occurs(object(robot,1),action(move,(0,1)),5).
Optimization: 9
Answer: 2
occurs(object(robot,1),action(move,(-1,0)),1). occurs(object(robot,1),action(move,(-1,0)),3). occurs(object(robot,2),action(move,(1,0)),3). occurs(object(robot,1),action(move,(0,-1)),2). occurs(object(robot,2),action(move,(1,0)),4). occurs(object(robot,1),action(move,(-1,0)),4). occurs(object(robot,1),action(move,(0,1)),5). occurs(object(robot,2),action(move,(1,0)),5).
Optimization: 5
OPTIMUM FOUND

Models       : 2
  Optimum    : yes
Optimization : 5
Calls        : 1
Time         : 0.349s (Solving: 0.01s 1st Model: 0.00s Unsat: 0.00s)
CPU Time     : 0.058s
